42	0

0	1	2
2	1	3
9	1	4
4	1	5
1	1	6
10	1	7
1	1	8
10	1	9
3	1	10
1	1	11
7	1	12
7	1	13
8	1	14
7	1	15
7	1	16
2	1	17
8	1	18
4	2	19	20
2	1	21
9	1	21
1	1	22
7	1	23
2	1	24
9	1	25
3	1	26
10	2	27	28
6	1	29
6	1	29
4	1	30
10	1	31
1	1	32
2	1	33
2	1	34
7	1	35
3	1	36
4	2	37	38
8	1	39
3	1	39
1	1	40
1	1	41
9	1	42
0	0
